--- Job gams_0064_002_32_04_0.67_05_0.50_0.90_08_problem.txt Start 02/24/21 20:05:13 35.2.0 r33388c4 WEX-WEI x86 64bit/MS Windows
--- Applying:
    C:\Users\MariaSosnovskaya\GAMS35\gmsprmNT.txt
--- GAMS Parameters defined
    Input C:\Users\MariaSosnovskaya\Downloads\WfmGams3\problems\gams_0064_002_32_04_0.67_05_0.50_0.90_08_problem.txt
    ScrDir C:\Users\MariaSosnovskaya\Downloads\WfmGams3\225i\
    SysDir C:\Users\MariaSosnovskaya\GAMS35\
Licensee: GAMS Evaluation License                        S210124/0001AB-GEN
          Sobolev Institute of Mathematics, Discrete Optimization LaDCE1098
          C:\Users\MariaSosnovskaya\GAMS35\gamslice.txt
          Evaluation license: Not for commercial or production use
GAMS 35.2.0   Copyright (C) 1987-2021 GAMS Development. All rights reserved
--- Starting compilation
--- gams_0064_002_32_04_0.67_05_0.50_0.90_08_problem.txt(22) 3 Mb
--- . gams_0064_002_32_04_0.67_05_0.50_0.90_08.inc(6600) 3 Mb
--- gams_0064_002_32_04_0.67_05_0.50_0.90_08_problem.txt(98) 3 Mb
--- Starting execution: elapsed 0:00:00.040
--- gams_0064_002_32_04_0.67_05_0.50_0.90_08_problem.txt(6621) 4 Mb
--- Generating MIP model mymodel
--- gams_0064_002_32_04_0.67_05_0.50_0.90_08_problem.txt(6677) 9 Mb
---   16,769 rows  12,289 columns  56,257 non-zeroes
---   12,288 discrete-columns
--- Executing CPLEX (Solvelink=2): elapsed 0:00:00.167

IBM ILOG CPLEX   35.2.0 r33388c4 Released Jun 02, 2021 WEI x86 64bit/MS Window

--- GAMS/Cplex licensed for continuous and discrete problems.
--- Space for names approximately 0.61 Mb
--- Use option 'names no' to turn use of names off
--- GMO memory 6.31 Mb (peak 6.40 Mb)
--- Dictionary memory 0.00 Mb
--- Cplex 20.1.0.1 link memory 0.43 Mb (peak 1.99 Mb)
--- Starting Cplex

Version identifier: 20.1.0.1 | 2021-04-07 | 3a818710c
CPXPARAM_Advance                                 0
CPXPARAM_Threads                                 1
CPXPARAM_MIP_Display                             4
CPXPARAM_TimeLimit                               3600
CPXPARAM_MIP_Tolerances_AbsMIPGap                0
Generic callback                                 0x50
Tried aggregator 2 times.
MIP Presolve eliminated 8321 rows and 962 columns.
Aggregator did 192 substitutions.
Reduced MIP has 8256 rows, 11136 columns, and 37476 nonzeros.
Reduced MIP has 11136 binaries, 0 generals, 0 SOSs, and 0 indicators.
Presolve time = 0.08 sec. (42.06 ticks)
Probing fixed 928 vars, tightened 0 bounds.
Probing changed sense of 56 constraints.
Probing time = 0.08 sec. (29.54 ticks)
Tried aggregator 16 times.
MIP Presolve eliminated 448 rows and 985 columns.
Aggregator did 448 substitutions.
Reduced MIP has 7360 rows, 9703 columns, and 32876 nonzeros.
Reduced MIP has 9703 binaries, 0 generals, 0 SOSs, and 0 indicators.
Presolve time = 0.59 sec. (314.30 ticks)
Probing time = 0.00 sec. (4.38 ticks)
Tried aggregator 1 time.
Detecting symmetries...
Reduced MIP has 7360 rows, 9703 columns, and 32876 nonzeros.
Reduced MIP has 9703 binaries, 0 generals, 0 SOSs, and 0 indicators.
Presolve time = 0.05 sec. (29.03 ticks)
Probing time = 0.02 sec. (4.38 ticks)
Clique table members: 24159.
MIP emphasis: balance optimality and feasibility.
MIP search method: dynamic search.
Parallel mode: none, using 1 thread.
Tried aggregator 1 time.
No LP presolve or aggregator reductions.
Presolve time = 0.01 sec. (4.28 ticks)
Initializing dual steep norms . . .

Iteration log . . .
Iteration:     1   Dual objective     =          8415.000000
Perturbation started.
Iteration:   101   Dual objective     =          8415.000000
Iteration:   482   Dual objective     =          8414.999844
Iteration:   839   Dual objective     =          8414.999737
Iteration:  1209   Dual objective     =          8414.999610
Iteration:  1574   Dual objective     =          8414.999490
Iteration:  1951   Dual objective     =          8414.999360
Iteration:  2304   Dual objective     =          8414.999266
Iteration:  2652   Dual objective     =          8414.999224
Iteration:  2969   Dual objective     =          8414.999188
Iteration:  3290   Dual objective     =          8414.999165
Iteration:  3614   Dual objective     =          8414.999139
Iteration:  3920   Dual objective     =          8414.999119
Iteration:  4224   Dual objective     =          8414.999101
Iteration:  4508   Dual objective     =          8414.999086
Iteration:  4771   Dual objective     =          8414.999073
Iteration:  5014   Dual objective     =          8414.999062
Iteration:  5203   Dual objective     =          8414.999055
Iteration:  5372   Dual objective     =          8414.999047
Iteration:  5538   Dual objective     =          8414.999041
Iteration:  5701   Dual objective     =          8414.999034
Iteration:  5871   Dual objective     =          8414.999030
Iteration:  6002   Dual objective     =          8414.999025
Iteration:  6161   Dual objective     =          8414.999018
Iteration:  6295   Dual objective     =          8414.999013
Iteration:  6418   Dual objective     =          8414.999010
Iteration:  6547   Dual objective     =          8414.999007
Iteration:  6668   Dual objective     =          8414.999005
Iteration:  6800   Dual objective     =          8414.999003
Iteration:  6918   Dual objective     =          8414.999002
Iteration:  7037   Dual objective     =          8414.999001
Iteration:  7156   Dual objective     =          8414.999000
Iteration:  7281   Dual objective     =          8414.999000
Removing perturbation.
Root relaxation solution time = 0.90 sec. (528.88 ticks)

        Nodes                                         Cuts/
   Node  Left     Objective  IInf  Best Integer    Best Bound    ItCnt     Gap

      0     0     8415.0000  1300                   8415.0000     7388         
      0     0     8415.0000   714                    Cuts: 19     7897         
      0     0     8415.0000   774                   Cuts: 120     9279         
      0     0     8415.0000   257                 ZeroHalf: 1     9283         
      0     0     8415.0000   168                ZeroHalf: 31     9517         
      0     0     8415.0000   286                ZeroHalf: 24     9854         
*     0+    0                         8415.0000     8415.0000             0.00%
Found incumbent of value 8415.000000 after 4.71 sec. (2776.39 ticks)
      0     0        cutoff           8415.0000     8415.0000     9854    0.00%
Elapsed time = 4.71 sec. (2776.39 ticks, tree = 0.01 MB, solutions = 1)

Zero-half cuts applied:  51
Lift and project cuts applied:  5
Gomory fractional cuts applied:  12

Root node processing (before b&c):
  Real time             =    4.71 sec. (2776.94 ticks)
Sequential b&c:
  Real time             =    0.00 sec. (0.00 ticks)
                          ------------
Total (root+branch&cut) =    4.71 sec. (2776.94 ticks)

--- MIP status (101): integer optimal solution.
--- Cplex Time: 4.71sec (det. 2776.98 ticks)

--- Fixing integer variables and solving final LP...

Version identifier: 20.1.0.1 | 2021-04-07 | 3a818710c
CPXPARAM_Advance                                 2
CPXPARAM_Threads                                 1
CPXPARAM_MIP_Display                             4
CPXPARAM_TimeLimit                               3600
CPXPARAM_MIP_Tolerances_AbsMIPGap                0
Tried aggregator 1 time.
LP Presolve eliminated 16769 rows and 12290 columns.
All rows and columns eliminated.
Presolve time = 0.02 sec. (7.09 ticks)

--- Fixed MIP status (1): optimal.
--- Cplex Time: 0.02sec (det. 12.43 ticks)


Proven optimal solution
MIP Solution:         8415.000000    (9854 iterations, 0 nodes)
Final Solve:          8415.000000    (0 iterations)

Best possible:        8415.000000
Absolute gap:            0.000000
Relative gap:            0.000000

--- Reading solution for model mymodel
--- gams_0064_002_32_04_0.67_05_0.50_0.90_08_problem.txt(6677) 9 Mb  4 secs
--- Executing after solve: elapsed 0:00:05.086
--- gams_0064_002_32_04_0.67_05_0.50_0.90_08_problem.txt(6678) 9 Mb--- gams_0064_002_32_04_0.67_05_0.50_0.90_08_problem.txt(6698) 9 Mb
--- Putfile results C:\Users\MariaSosnovskaya\Downloads\WfmGams3\problems\gams_0064_002_32_04_0.67_05_0.50_0.90_08_results.txt
*** Status: Normal completion
--- Job gams_0064_002_32_04_0.67_05_0.50_0.90_08_problem.txt Stop 02/24/21 20:05:18 elapsed 0:00:05.110
